69982
1 0 0 0 0 0 0 0 0 0 1 0 0 0 0 0 0 1 1 0 1 0 0 1 0 0 0 1 1 0 
0 23 27 28 17 28 0 20 10 18 10 0 18 20 17 10 20 23 20 17 20 27 23 23 17 28 23 17 23 27 17 20 28 28 18 18 20 27 18 28 27 17 28 10 10 18 20 28 18 23 28 0 10 28 17 27 23 28 27 18 28 18 18 10 28 27 20 20 27 17 17 23 28 20 20 28 18 23 17 18 23 0 23 18 23 27 20 18 18 10 17 0 10 27 23 10 23 17 17 0 27 27 10 28 10 17 20 20 28 20 0 23 27 0 28 20 18 28 18 17 20 27 10 27 0 23 27 28 20 27 18 0 27 17 10 17 23 18 28 20 18 23 28 0 23 0 17 0 0 10 20 28 23 28 28 18 28 17 18 17 0 27 10 27 10 20 20 0 20 17 23 10 18 10 18 23 10 17 27 10 27 10 18 18 23 28 28 28 0 10 27 20 0 17 27 10 17 27 23 17 
